c "random instance"
p edges 150 1159
e 1 6
e 1 21
e 1 50
e 1 82
e 1 100
e 1 126
e 1 131
e 1 140
e 2 3
e 2 4
e 2 8
e 2 21
e 2 25
e 2 27
e 2 43
e 2 70
e 2 71
e 2 76
e 2 94
e 2 110
e 2 122
e 2 141
e 3 6
e 3 14
e 3 18
e 3 22
e 3 24
e 3 57
e 3 58
e 3 60
e 3 61
e 3 76
e 3 93
e 3 95
e 3 102
e 3 111
e 3 128
e 3 149
e 4 16
e 4 37
e 4 38
e 4 40
e 4 48
e 4 56
e 4 60
e 4 66
e 4 69
e 4 75
e 4 87
e 4 101
e 4 114
e 4 117
e 4 125
e 4 131
e 4 132
e 4 138
e 4 141
e 5 12
e 5 13
e 5 34
e 5 36
e 5 58
e 5 70
e 5 77
e 5 96
e 5 99
e 5 108
e 5 115
e 5 125
e 5 139
e 5 144
e 5 147
e 5 150
e 6 13
e 6 31
e 6 37
e 6 55
e 6 63
e 6 64
e 6 75
e 6 81
e 6 83
e 6 89
e 6 106
e 6 122
e 7 8
e 7 30
e 7 34
e 7 44
e 7 54
e 7 55
e 7 61
e 7 63
e 7 112
e 7 119
e 7 137
e 7 139
e 8 13
e 8 23
e 8 30
e 8 31
e 8 37
e 8 53
e 8 58
e 8 59
e 8 75
e 8 122
e 8 137
e 8 144
e 9 15
e 9 16
e 9 24
e 9 30
e 9 59
e 9 77
e 9 89
e 9 107
e 9 109
e 9 124
e 9 130
e 9 133
e 9 134
e 9 144
e 9 149
e 10 36
e 10 41
e 10 44
e 10 75
e 10 79
e 10 85
e 10 110
e 10 117
e 10 119
e 10 128
e 11 23
e 11 30
e 11 56
e 11 73
e 11 74
e 11 75
e 11 79
e 11 81
e 11 87
e 11 107
e 11 110
e 11 116
e 11 118
e 11 121
e 11 123
e 11 136
e 11 138
e 11 143
e 12 28
e 12 30
e 12 33
e 12 65
e 12 73
e 12 88
e 12 93
e 12 108
e 12 118
e 12 135
e 12 143
e 12 148
e 13 26
e 13 35
e 13 51
e 13 57
e 13 85
e 13 88
e 13 93
e 13 95
e 13 96
e 13 97
e 13 101
e 13 108
e 13 109
e 13 112
e 13 117
e 13 119
e 13 141
e 13 145
e 13 149
e 14 37
e 14 50
e 14 54
e 14 86
e 14 89
e 14 91
e 14 112
e 14 118
e 14 141
e 14 147
e 14 150
e 15 28
e 15 40
e 15 41
e 15 57
e 15 66
e 15 69
e 15 78
e 15 116
e 15 122
e 15 123
e 16 28
e 16 38
e 16 43
e 16 82
e 16 92
e 16 97
e 16 113
e 16 132
e 16 133
e 16 135
e 16 136
e 16 141
e 16 149
e 17 22
e 17 27
e 17 28
e 17 39
e 17 54
e 17 65
e 17 72
e 17 74
e 17 82
e 17 94
e 17 99
e 17 103
e 17 118
e 17 119
e 17 125
e 18 32
e 18 33
e 18 42
e 18 43
e 18 53
e 18 76
e 18 118
e 18 119
e 18 131
e 19 27
e 19 38
e 19 41
e 19 74
e 19 75
e 19 79
e 19 82
e 19 83
e 19 87
e 19 88
e 19 92
e 19 104
e 20 28
e 20 57
e 20 71
e 20 82
e 20 84
e 20 100
e 20 114
e 20 122
e 20 123
e 20 124
e 20 127
e 20 144
e 21 30
e 21 41
e 21 76
e 21 77
e 21 89
e 21 97
e 21 102
e 21 107
e 21 113
e 21 123
e 21 125
e 21 129
e 21 144
e 22 27
e 22 38
e 22 43
e 22 68
e 22 91
e 22 105
e 22 117
e 22 118
e 22 122
e 22 127
e 22 130
e 22 132
e 22 133
e 23 27
e 23 36
e 23 75
e 23 78
e 23 81
e 23 93
e 23 97
e 23 105
e 23 130
e 23 139
e 23 142
e 24 25
e 24 26
e 24 47
e 24 67
e 24 71
e 24 73
e 24 74
e 24 82
e 24 86
e 24 91
e 24 93
e 24 96
e 24 102
e 24 115
e 24 120
e 24 126
e 24 136
e 24 145
e 25 54
e 25 64
e 25 68
e 25 69
e 25 75
e 25 132
e 26 38
e 26 52
e 26 105
e 26 109
e 26 110
e 26 112
e 26 117
e 26 120
e 26 128
e 26 129
e 26 130
e 26 143
e 26 145
e 26 150
e 27 35
e 27 54
e 27 56
e 27 60
e 27 68
e 27 83
e 27 103
e 27 107
e 27 118
e 27 128
e 28 31
e 28 35
e 28 47
e 28 48
e 28 52
e 28 65
e 28 74
e 28 80
e 28 82
e 28 83
e 28 121
e 28 140
e 29 55
e 29 79
e 29 90
e 29 91
e 29 109
e 29 113
e 29 123
e 29 131
e 29 143
e 30 33
e 30 35
e 30 72
e 30 76
e 30 83
e 30 111
e 30 118
e 30 120
e 30 128
e 30 139
e 30 149
e 31 44
e 31 51
e 31 52
e 31 54
e 31 59
e 31 71
e 31 90
e 31 102
e 31 106
e 31 120
e 31 139
e 32 47
e 32 48
e 32 63
e 32 66
e 32 74
e 32 87
e 32 99
e 32 105
e 32 127
e 32 128
e 32 135
e 32 136
e 32 137
e 32 140
e 32 146
e 32 148
e 32 149
e 33 43
e 33 80
e 33 97
e 33 109
e 33 113
e 33 121
e 33 126
e 33 127
e 33 136
e 33 137
e 33 139
e 33 141
e 33 144
e 34 35
e 34 37
e 34 50
e 34 58
e 34 92
e 34 117
e 34 122
e 35 40
e 35 44
e 35 49
e 35 61
e 35 83
e 35 93
e 35 133
e 36 46
e 36 52
e 36 54
e 36 57
e 36 61
e 36 62
e 36 63
e 36 71
e 36 73
e 36 80
e 36 85
e 36 92
e 36 102
e 36 105
e 36 108
e 36 112
e 36 120
e 36 121
e 36 137
e 36 138
e 36 146
e 36 147
e 37 90
e 37 93
e 37 115
e 37 120
e 37 137
e 37 138
e 37 145
e 37 146
e 38 58
e 38 59
e 38 60
e 38 62
e 38 76
e 38 86
e 38 88
e 38 89
e 38 102
e 38 108
e 38 110
e 38 114
e 38 120
e 38 127
e 38 132
e 38 137
e 39 42
e 39 46
e 39 51
e 39 57
e 39 66
e 39 70
e 39 82
e 39 84
e 39 92
e 39 107
e 39 111
e 39 114
e 39 119
e 39 120
e 39 125
e 39 137
e 39 142
e 39 143
e 40 52
e 40 56
e 40 61
e 40 69
e 40 77
e 40 84
e 40 85
e 40 87
e 40 90
e 40 108
e 40 113
e 41 60
e 41 63
e 41 79
e 41 86
e 41 115
e 41 130
e 41 144
e 41 145
e 42 43
e 42 56
e 42 57
e 42 63
e 42 83
e 42 86
e 42 89
e 42 102
e 42 105
e 42 108
e 42 113
e 42 114
e 42 118
e 42 142
e 43 63
e 43 67
e 43 90
e 43 92
e 43 97
e 43 104
e 43 119
e 43 130
e 43 131
e 43 136
e 43 137
e 43 139
e 43 147
e 44 57
e 44 58
e 44 61
e 44 62
e 44 72
e 44 80
e 44 88
e 44 92
e 44 116
e 44 127
e 44 130
e 44 140
e 44 148
e 45 58
e 45 92
e 45 96
e 45 99
e 45 117
e 45 139
e 45 147
e 45 149
e 46 60
e 46 71
e 46 72
e 46 73
e 46 78
e 46 79
e 46 83
e 46 88
e 46 109
e 46 124
e 46 141
e 46 145
e 47 50
e 47 52
e 47 55
e 47 65
e 47 70
e 47 78
e 47 83
e 47 86
e 47 90
e 47 100
e 47 131
e 47 137
e 48 69
e 48 71
e 48 74
e 48 76
e 48 100
e 48 109
e 48 113
e 48 115
e 48 118
e 48 124
e 48 127
e 48 141
e 48 149
e 49 59
e 49 61
e 49 73
e 49 91
e 49 95
e 49 97
e 49 101
e 49 107
e 49 112
e 49 114
e 49 115
e 49 131
e 49 133
e 49 146
e 50 53
e 50 55
e 50 58
e 50 79
e 50 86
e 50 102
e 50 105
e 50 116
e 50 119
e 50 138
e 50 145
e 51 78
e 51 92
e 51 104
e 51 111
e 51 139
e 51 142
e 51 149
e 52 58
e 52 87
e 52 89
e 52 100
e 52 101
e 52 105
e 52 120
e 52 131
e 52 141
e 52 149
e 53 79
e 53 93
e 53 108
e 53 116
e 53 130
e 53 134
e 53 142
e 54 64
e 54 74
e 54 76
e 54 82
e 54 84
e 54 95
e 54 129
e 54 135
e 55 56
e 55 65
e 55 75
e 55 84
e 55 85
e 55 89
e 55 96
e 55 107
e 55 113
e 55 114
e 55 145
e 56 81
e 56 95
e 56 107
e 56 108
e 56 112
e 56 127
e 56 130
e 56 140
e 56 141
e 57 60
e 57 70
e 57 80
e 57 81
e 57 82
e 57 104
e 57 121
e 57 122
e 57 124
e 57 125
e 57 131
e 57 138
e 57 149
e 58 60
e 58 61
e 58 62
e 58 70
e 58 76
e 58 77
e 58 103
e 58 108
e 58 113
e 58 128
e 58 138
e 58 147
e 59 61
e 59 63
e 59 67
e 59 96
e 59 104
e 59 105
e 59 111
e 59 125
e 59 133
e 59 144
e 60 63
e 60 64
e 60 65
e 60 69
e 60 71
e 60 74
e 60 77
e 60 85
e 60 87
e 60 102
e 60 104
e 60 105
e 60 136
e 60 137
e 60 150
e 61 62
e 61 65
e 61 68
e 61 69
e 61 72
e 61 78
e 61 79
e 61 85
e 61 93
e 61 103
e 61 113
e 61 114
e 61 131
e 61 134
e 61 135
e 61 137
e 61 144
e 62 72
e 62 73
e 62 81
e 62 84
e 62 89
e 62 93
e 62 96
e 62 104
e 62 118
e 63 84
e 63 92
e 63 95
e 63 96
e 63 97
e 63 98
e 63 100
e 63 128
e 63 134
e 63 136
e 64 78
e 64 84
e 64 105
e 64 113
e 64 117
e 64 130
e 64 137
e 64 142
e 65 94
e 65 104
e 65 127
e 65 136
e 65 145
e 66 75
e 66 78
e 66 88
e 66 91
e 66 98
e 66 107
e 66 109
e 66 112
e 66 130
e 66 132
e 66 134
e 66 135
e 67 83
e 67 86
e 67 91
e 67 111
e 67 127
e 67 135
e 67 138
e 67 147
e 68 94
e 68 103
e 68 112
e 68 115
e 68 120
e 68 135
e 68 136
e 68 142
e 69 102
e 69 109
e 69 135
e 69 137
e 70 80
e 70 93
e 70 110
e 70 115
e 70 117
e 70 118
e 71 74
e 71 87
e 71 94
e 71 100
e 71 110
e 71 116
e 71 127
e 71 135
e 72 84
e 72 88
e 72 99
e 72 100
e 72 125
e 72 134
e 72 137
e 72 138
e 73 74
e 73 91
e 73 94
e 73 95
e 73 100
e 73 102
e 73 118
e 73 139
e 73 145
e 73 147
e 73 148
e 74 86
e 74 106
e 74 118
e 74 137
e 74 142
e 74 143
e 74 150
e 75 81
e 75 94
e 75 109
e 75 121
e 76 82
e 76 91
e 76 102
e 76 106
e 76 107
e 76 109
e 76 112
e 76 123
e 76 126
e 76 127
e 76 141
e 76 144
e 77 93
e 77 102
e 77 114
e 77 128
e 77 136
e 77 141
e 77 143
e 77 148
e 77 150
e 78 84
e 78 146
e 79 81
e 79 104
e 79 128
e 79 137
e 79 138
e 79 139
e 79 143
e 79 149
e 80 92
e 80 97
e 80 108
e 80 118
e 80 122
e 80 126
e 80 132
e 80 133
e 80 138
e 81 85
e 81 89
e 81 126
e 81 133
e 81 137
e 81 138
e 81 149
e 82 84
e 82 89
e 82 122
e 82 126
e 82 127
e 83 85
e 83 100
e 83 115
e 83 129
e 84 87
e 84 107
e 84 113
e 84 114
e 84 122
e 84 134
e 84 140
e 84 146
e 85 88
e 85 103
e 85 105
e 85 121
e 85 132
e 85 147
e 86 97
e 86 99
e 86 100
e 86 117
e 86 123
e 86 146
e 87 100
e 87 118
e 87 120
e 87 125
e 87 149
e 88 125
e 88 145
e 89 95
e 89 102
e 89 106
e 89 117
e 89 121
e 89 138
e 89 140
e 89 146
e 90 93
e 90 96
e 90 117
e 90 122
e 90 132
e 90 134
e 90 135
e 90 140
e 90 146
e 91 94
e 91 103
e 91 112
e 91 116
e 91 120
e 91 121
e 91 148
e 92 96
e 92 98
e 92 99
e 92 101
e 92 116
e 92 121
e 92 125
e 93 100
e 93 108
e 93 110
e 93 136
e 93 141
e 94 97
e 94 115
e 94 127
e 94 130
e 94 147
e 95 115
e 95 127
e 95 128
e 96 103
e 96 115
e 96 123
e 96 125
e 96 132
e 96 139
e 97 98
e 97 103
e 97 108
e 97 124
e 97 134
e 97 135
e 97 144
e 97 147
e 98 103
e 98 112
e 98 119
e 98 125
e 98 129
e 98 131
e 98 142
e 98 144
e 98 146
e 98 147
e 99 101
e 99 129
e 100 106
e 100 108
e 100 124
e 100 139
e 100 144
e 100 149
e 101 103
e 101 104
e 101 116
e 101 118
e 101 120
e 101 125
e 101 138
e 101 148
e 102 103
e 102 105
e 102 148
e 103 109
e 103 112
e 103 122
e 103 126
e 103 129
e 103 137
e 104 110
e 104 116
e 104 124
e 104 128
e 104 136
e 105 109
e 105 111
e 105 112
e 105 122
e 105 126
e 105 137
e 106 109
e 106 115
e 106 123
e 106 131
e 106 146
e 107 113
e 107 115
e 107 125
e 107 132
e 107 144
e 108 133
e 108 134
e 108 144
e 108 150
e 109 114
e 109 115
e 109 117
e 109 123
e 109 127
e 109 128
e 109 135
e 109 150
e 110 127
e 110 135
e 111 146
e 112 126
e 112 127
e 113 114
e 113 117
e 113 119
e 113 130
e 113 138
e 113 142
e 114 125
e 114 126
e 114 147
e 115 117
e 115 118
e 115 121
e 115 130
e 115 133
e 115 142
e 116 119
e 116 120
e 116 132
e 116 134
e 116 136
e 116 150
e 117 118
e 117 120
e 117 142
e 118 120
e 118 125
e 118 130
e 118 132
e 118 135
e 118 147
e 119 124
e 119 132
e 119 133
e 119 136
e 119 148
e 120 124
e 120 143
e 120 145
e 120 147
e 120 148
e 121 143
e 122 133
e 122 134
e 122 140
e 122 150
e 123 128
e 123 141
e 123 150
e 124 136
e 125 132
e 125 143
e 125 147
e 126 135
e 126 136
e 126 139
e 126 142
e 127 134
e 127 140
e 128 133
e 128 144
e 128 147
e 128 149
e 129 138
e 130 140
e 130 141
e 131 143
e 131 149
e 132 136
e 132 138
e 132 144
e 133 140
e 134 138
e 134 139
e 134 140
e 134 141
e 134 143
e 134 149
e 135 148
e 136 149
e 137 143
e 137 148
e 138 150
e 139 148
e 140 144
e 141 142
e 141 149
e 142 144
e 144 148
